\ LP format - for model browsing. Use MPS format to capture full model detail.
Minimize
  81 x_st_students[Studi_1,1] + 4 x_st_students[Studi_1,2]
   + 36 x_st_students[Studi_1,3] + 25 x_st_students[Studi_1,4]
   + 16 x_st_students[Studi_1,5] + 49 x_st_students[Studi_1,6]
   + 64 x_st_students[Studi_1,7] + x_st_students[Studi_1,8]
   + 100 x_st_students[Studi_1,9] + 9 x_st_students[Studi_1,10]
   + 9 x_st_students[Studi_2,1] + 25 x_st_students[Studi_2,2]
   + 81 x_st_students[Studi_2,3] + 49 x_st_students[Studi_2,4]
   + 64 x_st_students[Studi_2,5] + 16 x_st_students[Studi_2,6]
   + 4 x_st_students[Studi_2,7] + 100 x_st_students[Studi_2,8]
   + 36 x_st_students[Studi_2,9] + x_st_students[Studi_2,10]
   + x_st_students[Studi_3,1] + 81 x_st_students[Studi_3,2]
   + 64 x_st_students[Studi_3,3] + 25 x_st_students[Studi_3,4]
   + 49 x_st_students[Studi_3,5] + 100 x_st_students[Studi_3,6]
   + 9 x_st_students[Studi_3,7] + 4 x_st_students[Studi_3,8]
   + 16 x_st_students[Studi_3,9] + 36 x_st_students[Studi_3,10]
   + 64 x_st_students[Studi_4,1] + x_st_students[Studi_4,2]
   + 100 x_st_students[Studi_4,3] + 81 x_st_students[Studi_4,4]
   + 4 x_st_students[Studi_4,5] + 9 x_st_students[Studi_4,6]
   + 25 x_st_students[Studi_4,7] + 16 x_st_students[Studi_4,8]
   + 49 x_st_students[Studi_4,9] + 36 x_st_students[Studi_4,10]
   + 25 x_st_students[Studi_5,1] + 9 x_st_students[Studi_5,2]
   + 36 x_st_students[Studi_5,3] + 49 x_st_students[Studi_5,4]
   + 64 x_st_students[Studi_5,5] + 16 x_st_students[Studi_5,6]
   + 81 x_st_students[Studi_5,7] + 100 x_st_students[Studi_5,8]
   + x_st_students[Studi_5,9] + 4 x_st_students[Studi_5,10]
   + 64 x_st_students[Studi_6,1] + 25 x_st_students[Studi_6,2]
   + 49 x_st_students[Studi_6,3] + 36 x_st_students[Studi_6,4]
   + x_st_students[Studi_6,5] + 4 x_st_students[Studi_6,6]
   + 81 x_st_students[Studi_6,7] + 100 x_st_students[Studi_6,8]
   + 9 x_st_students[Studi_6,9] + 16 x_st_students[Studi_6,10]
   + 49 x_st_students[Studi_7,1] + 9 x_st_students[Studi_7,2]
   + x_st_students[Studi_7,3] + 64 x_st_students[Studi_7,4]
   + 25 x_st_students[Studi_7,5] + 36 x_st_students[Studi_7,6]
   + 81 x_st_students[Studi_7,7] + 4 x_st_students[Studi_7,8]
   + 100 x_st_students[Studi_7,9] + 16 x_st_students[Studi_7,10]
   + 4 x_st_students[Studi_8,1] + 64 x_st_students[Studi_8,2]
   + 49 x_st_students[Studi_8,3] + 16 x_st_students[Studi_8,4]
   + 36 x_st_students[Studi_8,5] + 81 x_st_students[Studi_8,6]
   + 100 x_st_students[Studi_8,7] + x_st_students[Studi_8,8]
   + 9 x_st_students[Studi_8,9] + 25 x_st_students[Studi_8,10]
   + 16 x_st_students[Studi_9,1] + 64 x_st_students[Studi_9,2]
   + 36 x_st_students[Studi_9,3] + 4 x_st_students[Studi_9,4]
   + x_st_students[Studi_9,5] + 81 x_st_students[Studi_9,6]
   + 100 x_st_students[Studi_9,7] + 49 x_st_students[Studi_9,8]
   + 9 x_st_students[Studi_9,9] + 25 x_st_students[Studi_9,10]
   + 98 x_gt_groups[Group_1,1] + 8 x_gt_groups[Group_1,2]
   + 72 x_gt_groups[Group_1,3] + 50 x_gt_groups[Group_1,4]
   + 162 x_gt_groups[Group_1,5] + 128 x_gt_groups[Group_1,6]
   + 200 x_gt_groups[Group_1,7] + 2 x_gt_groups[Group_1,8]
   + 18 x_gt_groups[Group_1,9] + 32 x_gt_groups[Group_1,10]
   + 200 x_gt_groups[Group_2,1] + 8 x_gt_groups[Group_2,2]
   + 50 x_gt_groups[Group_2,3] + 128 x_gt_groups[Group_2,4]
   + 32 x_gt_groups[Group_2,5] + 18 x_gt_groups[Group_2,6]
   + 72 x_gt_groups[Group_2,7] + 162 x_gt_groups[Group_2,8]
   + 2 x_gt_groups[Group_2,9] + 98 x_gt_groups[Group_2,10]
   + 2 x_gt_groups[Group_3,1] + 32 x_gt_groups[Group_3,2]
   + 72 x_gt_groups[Group_3,3] + 50 x_gt_groups[Group_3,4]
   + 98 x_gt_groups[Group_3,5] + 162 x_gt_groups[Group_3,6]
   + 128 x_gt_groups[Group_3,7] + 200 x_gt_groups[Group_3,8]
   + 8 x_gt_groups[Group_3,9] + 18 x_gt_groups[Group_3,10]
   + 98 x_gt_groups[Group_4,1] + 162 x_gt_groups[Group_4,2]
   + 200 x_gt_groups[Group_4,3] + 72 x_gt_groups[Group_4,4]
   + 18 x_gt_groups[Group_4,5] + 32 x_gt_groups[Group_4,6]
   + 50 x_gt_groups[Group_4,7] + 2 x_gt_groups[Group_4,8]
   + 8 x_gt_groups[Group_4,9] + 128 x_gt_groups[Group_4,10]
   + 50 x_gt_groups[Group_5,1] + 98 x_gt_groups[Group_5,2]
   + 18 x_gt_groups[Group_5,3] + 8 x_gt_groups[Group_5,4]
   + 2 x_gt_groups[Group_5,5] + 128 x_gt_groups[Group_5,6]
   + 200 x_gt_groups[Group_5,7] + 162 x_gt_groups[Group_5,8]
   + 32 x_gt_groups[Group_5,9] + 72 x_gt_groups[Group_5,10]
   + 128 x_gt_groups[Group_6,1] + 200 x_gt_groups[Group_6,2]
   + 98 x_gt_groups[Group_6,3] + 2 x_gt_groups[Group_6,4]
   + 32 x_gt_groups[Group_6,5] + 8 x_gt_groups[Group_6,6]
   + 50 x_gt_groups[Group_6,7] + 162 x_gt_groups[Group_6,8]
   + 18 x_gt_groups[Group_6,9] + 72 x_gt_groups[Group_6,10]
Subject To
 exactly_one_topic_per_student[Studi_1]: x_st_students[Studi_1,1]
   + x_st_students[Studi_1,2] + x_st_students[Studi_1,3]
   + x_st_students[Studi_1,4] + x_st_students[Studi_1,5]
   + x_st_students[Studi_1,6] + x_st_students[Studi_1,7]
   + x_st_students[Studi_1,8] + x_st_students[Studi_1,9]
   + x_st_students[Studi_1,10] = 1
 exactly_one_topic_per_student[Studi_2]: x_st_students[Studi_2,1]
   + x_st_students[Studi_2,2] + x_st_students[Studi_2,3]
   + x_st_students[Studi_2,4] + x_st_students[Studi_2,5]
   + x_st_students[Studi_2,6] + x_st_students[Studi_2,7]
   + x_st_students[Studi_2,8] + x_st_students[Studi_2,9]
   + x_st_students[Studi_2,10] = 1
 exactly_one_topic_per_student[Studi_3]: x_st_students[Studi_3,1]
   + x_st_students[Studi_3,2] + x_st_students[Studi_3,3]
   + x_st_students[Studi_3,4] + x_st_students[Studi_3,5]
   + x_st_students[Studi_3,6] + x_st_students[Studi_3,7]
   + x_st_students[Studi_3,8] + x_st_students[Studi_3,9]
   + x_st_students[Studi_3,10] = 1
 exactly_one_topic_per_student[Studi_4]: x_st_students[Studi_4,1]
   + x_st_students[Studi_4,2] + x_st_students[Studi_4,3]
   + x_st_students[Studi_4,4] + x_st_students[Studi_4,5]
   + x_st_students[Studi_4,6] + x_st_students[Studi_4,7]
   + x_st_students[Studi_4,8] + x_st_students[Studi_4,9]
   + x_st_students[Studi_4,10] = 1
 exactly_one_topic_per_student[Studi_5]: x_st_students[Studi_5,1]
   + x_st_students[Studi_5,2] + x_st_students[Studi_5,3]
   + x_st_students[Studi_5,4] + x_st_students[Studi_5,5]
   + x_st_students[Studi_5,6] + x_st_students[Studi_5,7]
   + x_st_students[Studi_5,8] + x_st_students[Studi_5,9]
   + x_st_students[Studi_5,10] = 1
 exactly_one_topic_per_student[Studi_6]: x_st_students[Studi_6,1]
   + x_st_students[Studi_6,2] + x_st_students[Studi_6,3]
   + x_st_students[Studi_6,4] + x_st_students[Studi_6,5]
   + x_st_students[Studi_6,6] + x_st_students[Studi_6,7]
   + x_st_students[Studi_6,8] + x_st_students[Studi_6,9]
   + x_st_students[Studi_6,10] = 1
 exactly_one_topic_per_student[Studi_7]: x_st_students[Studi_7,1]
   + x_st_students[Studi_7,2] + x_st_students[Studi_7,3]
   + x_st_students[Studi_7,4] + x_st_students[Studi_7,5]
   + x_st_students[Studi_7,6] + x_st_students[Studi_7,7]
   + x_st_students[Studi_7,8] + x_st_students[Studi_7,9]
   + x_st_students[Studi_7,10] = 1
 exactly_one_topic_per_student[Studi_8]: x_st_students[Studi_8,1]
   + x_st_students[Studi_8,2] + x_st_students[Studi_8,3]
   + x_st_students[Studi_8,4] + x_st_students[Studi_8,5]
   + x_st_students[Studi_8,6] + x_st_students[Studi_8,7]
   + x_st_students[Studi_8,8] + x_st_students[Studi_8,9]
   + x_st_students[Studi_8,10] = 1
 exactly_one_topic_per_student[Studi_9]: x_st_students[Studi_9,1]
   + x_st_students[Studi_9,2] + x_st_students[Studi_9,3]
   + x_st_students[Studi_9,4] + x_st_students[Studi_9,5]
   + x_st_students[Studi_9,6] + x_st_students[Studi_9,7]
   + x_st_students[Studi_9,8] + x_st_students[Studi_9,9]
   + x_st_students[Studi_9,10] = 1
 exactly_one_topic_per_group[Group_1]: x_gt_groups[Group_1,1]
   + x_gt_groups[Group_1,2] + x_gt_groups[Group_1,3]
   + x_gt_groups[Group_1,4] + x_gt_groups[Group_1,5]
   + x_gt_groups[Group_1,6] + x_gt_groups[Group_1,7]
   + x_gt_groups[Group_1,8] + x_gt_groups[Group_1,9]
   + x_gt_groups[Group_1,10] = 1
 exactly_one_topic_per_group[Group_2]: x_gt_groups[Group_2,1]
   + x_gt_groups[Group_2,2] + x_gt_groups[Group_2,3]
   + x_gt_groups[Group_2,4] + x_gt_groups[Group_2,5]
   + x_gt_groups[Group_2,6] + x_gt_groups[Group_2,7]
   + x_gt_groups[Group_2,8] + x_gt_groups[Group_2,9]
   + x_gt_groups[Group_2,10] = 1
 exactly_one_topic_per_group[Group_3]: x_gt_groups[Group_3,1]
   + x_gt_groups[Group_3,2] + x_gt_groups[Group_3,3]
   + x_gt_groups[Group_3,4] + x_gt_groups[Group_3,5]
   + x_gt_groups[Group_3,6] + x_gt_groups[Group_3,7]
   + x_gt_groups[Group_3,8] + x_gt_groups[Group_3,9]
   + x_gt_groups[Group_3,10] = 1
 exactly_one_topic_per_group[Group_4]: x_gt_groups[Group_4,1]
   + x_gt_groups[Group_4,2] + x_gt_groups[Group_4,3]
   + x_gt_groups[Group_4,4] + x_gt_groups[Group_4,5]
   + x_gt_groups[Group_4,6] + x_gt_groups[Group_4,7]
   + x_gt_groups[Group_4,8] + x_gt_groups[Group_4,9]
   + x_gt_groups[Group_4,10] = 1
 exactly_one_topic_per_group[Group_5]: x_gt_groups[Group_5,1]
   + x_gt_groups[Group_5,2] + x_gt_groups[Group_5,3]
   + x_gt_groups[Group_5,4] + x_gt_groups[Group_5,5]
   + x_gt_groups[Group_5,6] + x_gt_groups[Group_5,7]
   + x_gt_groups[Group_5,8] + x_gt_groups[Group_5,9]
   + x_gt_groups[Group_5,10] = 1
 exactly_one_topic_per_group[Group_6]: x_gt_groups[Group_6,1]
   + x_gt_groups[Group_6,2] + x_gt_groups[Group_6,3]
   + x_gt_groups[Group_6,4] + x_gt_groups[Group_6,5]
   + x_gt_groups[Group_6,6] + x_gt_groups[Group_6,7]
   + x_gt_groups[Group_6,8] + x_gt_groups[Group_6,9]
   + x_gt_groups[Group_6,10] = 1
 min_topics_supervisor: topic_mode[1,1] + topic_mode[1,2] >= 1
 max_topics_supervisor: topic_mode[1,1] + topic_mode[1,2] <= 1
 min_topics_supervisor: topic_mode[2,1] + topic_mode[2,2] >= 1
 max_topics_supervisor: topic_mode[2,1] + topic_mode[2,2] <= 1
 min_topics_supervisor: topic_mode[3,1] + topic_mode[3,2] >= 1
 max_topics_supervisor: topic_mode[3,1] + topic_mode[3,2] <= 1
 min_topics_supervisor: topic_mode[4,1] + topic_mode[4,2] >= 1
 max_topics_supervisor: topic_mode[4,1] + topic_mode[4,2] <= 1
 min_topics_supervisor: topic_mode[5,1] + topic_mode[5,2] + topic_mode[6,1]
   + topic_mode[6,2] >= 2
 max_topics_supervisor: topic_mode[5,1] + topic_mode[5,2] + topic_mode[6,1]
   + topic_mode[6,2] <= 2
 min_topics_supervisor: topic_mode[7,1] + topic_mode[7,2] >= 1
 max_topics_supervisor: topic_mode[7,1] + topic_mode[7,2] <= 1
 min_topics_supervisor: topic_mode[8,1] + topic_mode[8,2] >= 1
 max_topics_supervisor: topic_mode[8,1] + topic_mode[8,2] <= 1
 min_topics_supervisor: topic_mode[9,1] + topic_mode[9,2]
   + topic_mode[10,1] + topic_mode[10,2] >= 2
 max_topics_supervisor: topic_mode[9,1] + topic_mode[9,2]
   + topic_mode[10,1] + topic_mode[10,2] <= 2
 max_one_mode_per_topic[1]: topic_mode[1,1] + topic_mode[1,2] <= 1
 max_one_mode_per_topic[2]: topic_mode[2,1] + topic_mode[2,2] <= 1
 max_one_mode_per_topic[3]: topic_mode[3,1] + topic_mode[3,2] <= 1
 max_one_mode_per_topic[4]: topic_mode[4,1] + topic_mode[4,2] <= 1
 max_one_mode_per_topic[5]: topic_mode[5,1] + topic_mode[5,2] <= 1
 max_one_mode_per_topic[6]: topic_mode[6,1] + topic_mode[6,2] <= 1
 max_one_mode_per_topic[7]: topic_mode[7,1] + topic_mode[7,2] <= 1
 max_one_mode_per_topic[8]: topic_mode[8,1] + topic_mode[8,2] <= 1
 max_one_mode_per_topic[9]: topic_mode[9,1] + topic_mode[9,2] <= 1
 max_one_mode_per_topic[10]: topic_mode[10,1] + topic_mode[10,2] <= 1
 limit_three-people-topics: topic_mode[1,2] + topic_mode[2,2]
   + topic_mode[3,2] + topic_mode[4,2] + topic_mode[5,2] + topic_mode[6,2]
   + topic_mode[7,2] + topic_mode[8,2] + topic_mode[9,2] + topic_mode[10,2]
   <= 1
 used_topics_-_number_of_students_balance_constraint[1]:
   x_st_students[Studi_1,1] + x_st_students[Studi_2,1]
   + x_st_students[Studi_3,1] + x_st_students[Studi_4,1]
   + x_st_students[Studi_5,1] + x_st_students[Studi_6,1]
   + x_st_students[Studi_7,1] + x_st_students[Studi_8,1]
   + x_st_students[Studi_9,1] + 2 x_gt_groups[Group_1,1]
   + 2 x_gt_groups[Group_2,1] + 2 x_gt_groups[Group_3,1]
   + 2 x_gt_groups[Group_4,1] + 2 x_gt_groups[Group_5,1]
   + 2 x_gt_groups[Group_6,1] - 2 topic_mode[1,1] - 3 topic_mode[1,2] = 0
 used_topics_-_number_of_students_balance_constraint[2]:
   x_st_students[Studi_1,2] + x_st_students[Studi_2,2]
   + x_st_students[Studi_3,2] + x_st_students[Studi_4,2]
   + x_st_students[Studi_5,2] + x_st_students[Studi_6,2]
   + x_st_students[Studi_7,2] + x_st_students[Studi_8,2]
   + x_st_students[Studi_9,2] + 2 x_gt_groups[Group_1,2]
   + 2 x_gt_groups[Group_2,2] + 2 x_gt_groups[Group_3,2]
   + 2 x_gt_groups[Group_4,2] + 2 x_gt_groups[Group_5,2]
   + 2 x_gt_groups[Group_6,2] - 2 topic_mode[2,1] - 3 topic_mode[2,2] = 0
 used_topics_-_number_of_students_balance_constraint[3]:
   x_st_students[Studi_1,3] + x_st_students[Studi_2,3]
   + x_st_students[Studi_3,3] + x_st_students[Studi_4,3]
   + x_st_students[Studi_5,3] + x_st_students[Studi_6,3]
   + x_st_students[Studi_7,3] + x_st_students[Studi_8,3]
   + x_st_students[Studi_9,3] + 2 x_gt_groups[Group_1,3]
   + 2 x_gt_groups[Group_2,3] + 2 x_gt_groups[Group_3,3]
   + 2 x_gt_groups[Group_4,3] + 2 x_gt_groups[Group_5,3]
   + 2 x_gt_groups[Group_6,3] - 2 topic_mode[3,1] - 3 topic_mode[3,2] = 0
 used_topics_-_number_of_students_balance_constraint[4]:
   x_st_students[Studi_1,4] + x_st_students[Studi_2,4]
   + x_st_students[Studi_3,4] + x_st_students[Studi_4,4]
   + x_st_students[Studi_5,4] + x_st_students[Studi_6,4]
   + x_st_students[Studi_7,4] + x_st_students[Studi_8,4]
   + x_st_students[Studi_9,4] + 2 x_gt_groups[Group_1,4]
   + 2 x_gt_groups[Group_2,4] + 2 x_gt_groups[Group_3,4]
   + 2 x_gt_groups[Group_4,4] + 2 x_gt_groups[Group_5,4]
   + 2 x_gt_groups[Group_6,4] - 2 topic_mode[4,1] - 3 topic_mode[4,2] = 0
 used_topics_-_number_of_students_balance_constraint[5]:
   x_st_students[Studi_1,5] + x_st_students[Studi_2,5]
   + x_st_students[Studi_3,5] + x_st_students[Studi_4,5]
   + x_st_students[Studi_5,5] + x_st_students[Studi_6,5]
   + x_st_students[Studi_7,5] + x_st_students[Studi_8,5]
   + x_st_students[Studi_9,5] + 2 x_gt_groups[Group_1,5]
   + 2 x_gt_groups[Group_2,5] + 2 x_gt_groups[Group_3,5]
   + 2 x_gt_groups[Group_4,5] + 2 x_gt_groups[Group_5,5]
   + 2 x_gt_groups[Group_6,5] - 2 topic_mode[5,1] - 3 topic_mode[5,2] = 0
 used_topics_-_number_of_students_balance_constraint[6]:
   x_st_students[Studi_1,6] + x_st_students[Studi_2,6]
   + x_st_students[Studi_3,6] + x_st_students[Studi_4,6]
   + x_st_students[Studi_5,6] + x_st_students[Studi_6,6]
   + x_st_students[Studi_7,6] + x_st_students[Studi_8,6]
   + x_st_students[Studi_9,6] + 2 x_gt_groups[Group_1,6]
   + 2 x_gt_groups[Group_2,6] + 2 x_gt_groups[Group_3,6]
   + 2 x_gt_groups[Group_4,6] + 2 x_gt_groups[Group_5,6]
   + 2 x_gt_groups[Group_6,6] - 2 topic_mode[6,1] - 3 topic_mode[6,2] = 0
 used_topics_-_number_of_students_balance_constraint[7]:
   x_st_students[Studi_1,7] + x_st_students[Studi_2,7]
   + x_st_students[Studi_3,7] + x_st_students[Studi_4,7]
   + x_st_students[Studi_5,7] + x_st_students[Studi_6,7]
   + x_st_students[Studi_7,7] + x_st_students[Studi_8,7]
   + x_st_students[Studi_9,7] + 2 x_gt_groups[Group_1,7]
   + 2 x_gt_groups[Group_2,7] + 2 x_gt_groups[Group_3,7]
   + 2 x_gt_groups[Group_4,7] + 2 x_gt_groups[Group_5,7]
   + 2 x_gt_groups[Group_6,7] - 2 topic_mode[7,1] - 3 topic_mode[7,2] = 0
 used_topics_-_number_of_students_balance_constraint[8]:
   x_st_students[Studi_1,8] + x_st_students[Studi_2,8]
   + x_st_students[Studi_3,8] + x_st_students[Studi_4,8]
   + x_st_students[Studi_5,8] + x_st_students[Studi_6,8]
   + x_st_students[Studi_7,8] + x_st_students[Studi_8,8]
   + x_st_students[Studi_9,8] + 2 x_gt_groups[Group_1,8]
   + 2 x_gt_groups[Group_2,8] + 2 x_gt_groups[Group_3,8]
   + 2 x_gt_groups[Group_4,8] + 2 x_gt_groups[Group_5,8]
   + 2 x_gt_groups[Group_6,8] - 2 topic_mode[8,1] - 3 topic_mode[8,2] = 0
 used_topics_-_number_of_students_balance_constraint[9]:
   x_st_students[Studi_1,9] + x_st_students[Studi_2,9]
   + x_st_students[Studi_3,9] + x_st_students[Studi_4,9]
   + x_st_students[Studi_5,9] + x_st_students[Studi_6,9]
   + x_st_students[Studi_7,9] + x_st_students[Studi_8,9]
   + x_st_students[Studi_9,9] + 2 x_gt_groups[Group_1,9]
   + 2 x_gt_groups[Group_2,9] + 2 x_gt_groups[Group_3,9]
   + 2 x_gt_groups[Group_4,9] + 2 x_gt_groups[Group_5,9]
   + 2 x_gt_groups[Group_6,9] - 2 topic_mode[9,1] - 3 topic_mode[9,2] = 0
 used_topics_-_number_of_students_balance_constraint[10]:
   x_st_students[Studi_1,10] + x_st_students[Studi_2,10]
   + x_st_students[Studi_3,10] + x_st_students[Studi_4,10]
   + x_st_students[Studi_5,10] + x_st_students[Studi_6,10]
   + x_st_students[Studi_7,10] + x_st_students[Studi_8,10]
   + x_st_students[Studi_9,10] + 2 x_gt_groups[Group_1,10]
   + 2 x_gt_groups[Group_2,10] + 2 x_gt_groups[Group_3,10]
   + 2 x_gt_groups[Group_4,10] + 2 x_gt_groups[Group_5,10]
   + 2 x_gt_groups[Group_6,10] - 2 topic_mode[10,1] - 3 topic_mode[10,2]
   = 0
Bounds
Binaries
 x_st_students[Studi_1,1] x_st_students[Studi_1,2] x_st_students[Studi_1,3]
 x_st_students[Studi_1,4] x_st_students[Studi_1,5] x_st_students[Studi_1,6]
 x_st_students[Studi_1,7] x_st_students[Studi_1,8] x_st_students[Studi_1,9]
 x_st_students[Studi_1,10] x_st_students[Studi_2,1]
 x_st_students[Studi_2,2] x_st_students[Studi_2,3] x_st_students[Studi_2,4]
 x_st_students[Studi_2,5] x_st_students[Studi_2,6] x_st_students[Studi_2,7]
 x_st_students[Studi_2,8] x_st_students[Studi_2,9]
 x_st_students[Studi_2,10] x_st_students[Studi_3,1]
 x_st_students[Studi_3,2] x_st_students[Studi_3,3] x_st_students[Studi_3,4]
 x_st_students[Studi_3,5] x_st_students[Studi_3,6] x_st_students[Studi_3,7]
 x_st_students[Studi_3,8] x_st_students[Studi_3,9]
 x_st_students[Studi_3,10] x_st_students[Studi_4,1]
 x_st_students[Studi_4,2] x_st_students[Studi_4,3] x_st_students[Studi_4,4]
 x_st_students[Studi_4,5] x_st_students[Studi_4,6] x_st_students[Studi_4,7]
 x_st_students[Studi_4,8] x_st_students[Studi_4,9]
 x_st_students[Studi_4,10] x_st_students[Studi_5,1]
 x_st_students[Studi_5,2] x_st_students[Studi_5,3] x_st_students[Studi_5,4]
 x_st_students[Studi_5,5] x_st_students[Studi_5,6] x_st_students[Studi_5,7]
 x_st_students[Studi_5,8] x_st_students[Studi_5,9]
 x_st_students[Studi_5,10] x_st_students[Studi_6,1]
 x_st_students[Studi_6,2] x_st_students[Studi_6,3] x_st_students[Studi_6,4]
 x_st_students[Studi_6,5] x_st_students[Studi_6,6] x_st_students[Studi_6,7]
 x_st_students[Studi_6,8] x_st_students[Studi_6,9]
 x_st_students[Studi_6,10] x_st_students[Studi_7,1]
 x_st_students[Studi_7,2] x_st_students[Studi_7,3] x_st_students[Studi_7,4]
 x_st_students[Studi_7,5] x_st_students[Studi_7,6] x_st_students[Studi_7,7]
 x_st_students[Studi_7,8] x_st_students[Studi_7,9]
 x_st_students[Studi_7,10] x_st_students[Studi_8,1]
 x_st_students[Studi_8,2] x_st_students[Studi_8,3] x_st_students[Studi_8,4]
 x_st_students[Studi_8,5] x_st_students[Studi_8,6] x_st_students[Studi_8,7]
 x_st_students[Studi_8,8] x_st_students[Studi_8,9]
 x_st_students[Studi_8,10] x_st_students[Studi_9,1]
 x_st_students[Studi_9,2] x_st_students[Studi_9,3] x_st_students[Studi_9,4]
 x_st_students[Studi_9,5] x_st_students[Studi_9,6] x_st_students[Studi_9,7]
 x_st_students[Studi_9,8] x_st_students[Studi_9,9]
 x_st_students[Studi_9,10] x_gt_groups[Group_1,1] x_gt_groups[Group_1,2]
 x_gt_groups[Group_1,3] x_gt_groups[Group_1,4] x_gt_groups[Group_1,5]
 x_gt_groups[Group_1,6] x_gt_groups[Group_1,7] x_gt_groups[Group_1,8]
 x_gt_groups[Group_1,9] x_gt_groups[Group_1,10] x_gt_groups[Group_2,1]
 x_gt_groups[Group_2,2] x_gt_groups[Group_2,3] x_gt_groups[Group_2,4]
 x_gt_groups[Group_2,5] x_gt_groups[Group_2,6] x_gt_groups[Group_2,7]
 x_gt_groups[Group_2,8] x_gt_groups[Group_2,9] x_gt_groups[Group_2,10]
 x_gt_groups[Group_3,1] x_gt_groups[Group_3,2] x_gt_groups[Group_3,3]
 x_gt_groups[Group_3,4] x_gt_groups[Group_3,5] x_gt_groups[Group_3,6]
 x_gt_groups[Group_3,7] x_gt_groups[Group_3,8] x_gt_groups[Group_3,9]
 x_gt_groups[Group_3,10] x_gt_groups[Group_4,1] x_gt_groups[Group_4,2]
 x_gt_groups[Group_4,3] x_gt_groups[Group_4,4] x_gt_groups[Group_4,5]
 x_gt_groups[Group_4,6] x_gt_groups[Group_4,7] x_gt_groups[Group_4,8]
 x_gt_groups[Group_4,9] x_gt_groups[Group_4,10] x_gt_groups[Group_5,1]
 x_gt_groups[Group_5,2] x_gt_groups[Group_5,3] x_gt_groups[Group_5,4]
 x_gt_groups[Group_5,5] x_gt_groups[Group_5,6] x_gt_groups[Group_5,7]
 x_gt_groups[Group_5,8] x_gt_groups[Group_5,9] x_gt_groups[Group_5,10]
 x_gt_groups[Group_6,1] x_gt_groups[Group_6,2] x_gt_groups[Group_6,3]
 x_gt_groups[Group_6,4] x_gt_groups[Group_6,5] x_gt_groups[Group_6,6]
 x_gt_groups[Group_6,7] x_gt_groups[Group_6,8] x_gt_groups[Group_6,9]
 x_gt_groups[Group_6,10] topic_mode[1,1] topic_mode[1,2] topic_mode[2,1]
 topic_mode[2,2] topic_mode[3,1] topic_mode[3,2] topic_mode[4,1]
 topic_mode[4,2] topic_mode[5,1] topic_mode[5,2] topic_mode[6,1]
 topic_mode[6,2] topic_mode[7,1] topic_mode[7,2] topic_mode[8,1]
 topic_mode[8,2] topic_mode[9,1] topic_mode[9,2] topic_mode[10,1]
 topic_mode[10,2]
End
